; benchmark generated from python API
(set-info :status unknown)
(declare-fun x4 () Real)
(declare-fun x3 () Real)
(declare-fun bool.b17 () Bool)
(declare-fun bool.b18 () Bool)
(declare-fun bool.b19 () Bool)
(declare-fun bool.b20 () Bool)
(declare-fun bool.b23 () Bool)
(declare-fun bool.b22 () Bool)
(declare-fun bool.b24 () Bool)
(declare-fun bool.b21 () Bool)
(assert
 (forall ((?lambda Real) )(let ((?x37966 (+ x3 (* (/ (- 1.0) 20.0) ?lambda))))
 (let ((?x14556 (* 1.0 ?x37966)))
 (let ((?x15598 (+ ?x14556 (* (/ 1.0 1200.0) (+ x4 (* 60.0 ?lambda))))))
 (let (($x16051 (<= ?x15598 (/ 20.0 3.0))))
 (let (($x3097 (not bool.b17)))
 (let (($x14135 (<= (+ ?x14556 (* (/ 1.0 800.0) (+ x4 (* 60.0 ?lambda)))) (/ 241.0 40.0))))
 (let (($x7021 (<= ?x14556 0.0)))
 (let (($x127 (not (and $x7021 (not $x14135)))))
 (let (($x11498 (not (and bool.b17 $x127))))
 (let (($x17319 (and $x11498 (not (and $x3097 (not (and $x16051 (not (<= ?x15598 (/ 241.0 60.0))))))))))
 (let (($x23086 (not bool.b18)))
 (let (($x20988 (not (and bool.b18 $x127))))
 (let (($x6207 (not bool.b19)))
 (let (($x13186 (and (not (and bool.b19 $x127)) (not (and $x6207 (not (and $x20988 (not (and $x23086 (not $x17319))))))))))
 (let (($x17385 (not $x13186)))
 (let (($x581 (not bool.b20)))
 (let (($x28895 (not (and (not (and bool.b20 $x127)) (not (and $x581 $x17385))))))
 (let (($x24325 (not bool.b23)))
 (let (($x7118 (not (and (not (and bool.b23 $x127)) (not (and $x24325 $x28895))))))
 (let ((?x26295 (- 1.0)))
 (let ((?x6998 (* ?x26295 ?x37966)))
 (let (($x6418 (<= (+ ?x6998 (* (/ ?x26295 40.0) (+ x4 (* 60.0 ?lambda)))) (/ (- 623.0) 4.0))))
 (let ((?x3745 (* 60.0 ?lambda)))
 (let ((?x1256 (+ x4 ?x3745)))
 (let ((?x12768 (* ?x26295 ?x1256)))
 (let (($x9678 (<= ?x12768 (- 4910.0))))
 (let (($x503 (not $x9678)))
 (let (($x7150 (<= ?x12768 (- 4500.0))))
 (let ((?x2507 (+ ?x14556 (* (/ 3.0 20.0) ?x1256))))
 (let (($x20390 (<= ?x2507 1200.0)))
 (let (($x8795 (<= ?x14556 40.0)))
 (let (($x28448 (and $x8795 $x20390)))
 (let (($x33792 (not (and $x28448 (and $x7150 (and $x503 $x6418))))))
 (let (($x6941 (not $x16051)))
 (let (($x4482 (not (and $x16051 (and $x503 (not (and $x8795 $x6418)))))))
 (let (($x12879 (not $x7021)))
 (let (($x7628 (not (and $x7021 (<= ?x2507 723.0)))))
 (let (($x12491 (not (and $x7628 (not (and $x12879 (not (and $x4482 (not (and $x6941 $x33792))))))))))
 (let (($x13379 (not (and $x20988 (not (and $x23086 (not (and $x11498 (not (and $x3097 $x12491))))))))))
 (let (($x10619 (<= (+ ?x6998 (* (/ ?x26295 60.0) ?x1256)) (/ (- 731.0) 6.0))))
 (let (($x4513 (<= ?x14556 45.0)))
 (let (($x22825 (<= (+ ?x6998 (* (/ ?x26295 20.0) ?x1256)) (/ (- 581.0) 2.0))))
 (let (($x31351 (and (not (and $x503 $x22825)) (and (not (and $x4513 (and $x503 $x10619))) $x33792))))
 (let (($x4240 (not (and (not $x8795) (<= (+ ?x14556 (* (/ 3.0 40.0) ?x1256)) 359.0)))))
 (let (($x16642 (not (<= (+ ?x14556 (* (/ 3.0 40.0) ?x1256)) (/ 743.0 2.0)))))
 (let ((?x4643 (+ ?x14556 (* (/ 3.0 40.0) ?x1256))))
 (let (($x8200 (<= ?x4643 359.0)))
 (let (($x472 (not $x8200)))
 (let (($x9319 (<= ?x4643 610.0)))
 (let (($x9874 (not (<= ?x4643 (/ 703.0 2.0)))))
 (let (($x4456 (and $x9874 (and $x9319 (and (not (and $x472 (not (and $x16642 $x28448)))) $x4240)))))
 (let (($x27584 (not $x4456)))
 (let (($x6392 (<= (+ ?x14556 (* (/ 1.0 15.0) ?x1256)) (/ 964.0 3.0))))
 (let (($x6594 (not $x6392)))
 (let (($x24892 (not (and (<= (+ ?x14556 (* (/ 1.0 40.0) ?x1256)) 133.0) (not $x28448)))))
 (let (($x7678 (and $x8795 (not (<= (+ ?x14556 (* (/ 1.0 40.0) ?x1256)) (/ 823.0 6.0))))))
 (let (($x23101 (and (not (<= (+ ?x14556 (* (/ 1.0 40.0) ?x1256)) 133.0)) (not $x7678))))
 (let (($x14084 (and (<= (+ ?x14556 (* (/ 1.0 40.0) ?x1256)) (/ 650.0 3.0)) (and (not $x23101) $x24892))))
 (let (($x10411 (and (not (<= (+ ?x14556 (* (/ 1.0 40.0) ?x1256)) (/ 261.0 2.0))) $x14084)))
 (let (($x4132 (not (and $x6392 (not $x10411)))))
 (let (($x4406 (<= ?x12768 (- 4100.0))))
 (let (($x16995 (<= ?x14556 20.0)))
 (let (($x39310 (not $x16995)))
 (let (($x1639 (not (and $x6392 (not (<= (+ ?x14556 (* (/ 1.0 20.0) ?x1256)) 241.0))))))
 (let (($x22925 (not (and $x16995 (and (not (and $x20390 (not (<= ?x2507 723.0)))) $x1639)))))
 (let (($x12237 (and $x22925 (not (and $x39310 (not (and $x4406 (and $x4132 (not (and $x6594 $x27584))))))))))
 (let (($x12466 (not bool.b24)))
 (let (($x26846 (and (not (and $x12466 (not $x12237))) (not (and bool.b24 (not (and $x4482 (not (and $x6941 $x31351)))))))))
 (let (($x12560 (and (<= (+ ?x14556 (* (/ ?x26295 20.0) ?x1256)) (- 205.0)) (not (<= (+ ?x14556 (* (/ ?x26295 20.0) ?x1256)) (- 209.0))))))
 (let (($x15535 (not (<= ?x6998 (- 20.0)))))
 (let ((?x19495 (+ ?x14556 (* (/ ?x26295 80.0) ?x1256))))
 (let (($x3142 (<= ?x19495 (/ (- 161.0) 4.0))))
 (let (($x9028 (and (<= ?x19495 (/ (- 145.0) 4.0)) (and (not (<= ?x6998 (- 30.0))) (not (and $x15535 (not $x12560)))))))
 (let (($x27295 (and (not (and (not $x3142) (not $x9028))) (not (and $x3142 (not (and $x15535 $x12560)))))))
 (let (($x24 (and (not (and (not (<= ?x14556 30.0)) (not $x12560))) (not (and (not (<= ?x6998 (- 30.0))) (not $x12560))))))
 (let (($x4604 (and (not (and $x7021 (and $x6392 (not $x24)))) (not (and $x12879 (not $x27295))))))
 (let (($x26741 (not $x7150)))
 (let (($x4545 (not (and $x26741 (not $x4604)))))
 (let (($x1042 (and $x4545 (not (and $x7150 (not (and $x7628 (not (and $x12879 (not $x26846))))))))))
 (let (($x9134 (and $x23086 (not (and (not (and $x3097 $x127)) (not (and bool.b17 (not $x1042))))))))
 (let (($x5505 (and (<= (+ ?x14556 (* (/ 1.0 60.0) ?x1256)) (/ 400.0 3.0)) $x10619)))
 (let (($x9626 (not $x8795)))
 (let (($x23434 (and $x9626 (not $x5505))))
 (let (($x21077 (not (and (not $x4513) (not $x22825)))))
 (let (($x4760 (and $x21077 (not (and $x4513 (not (and (not (<= ?x14556 33.0)) (not $x23434))))))))
 (let (($x6027 (and (not (and (not $x20390) (not $x4760))) (not (and $x20390 (not (and $x21077 (not (and $x4513 $x23434)))))))))
 (let (($x10991 (not (and $x9319 (not (and $x4240 (not (and $x472 (not (and $x16642 $x6027))))))))))
 (let (($x16632 (and $x8795 (not (and (not (<= ?x14556 33.0)) (and (<= ?x6998 (- 30.0)) $x6418))))))
 (let (($x2545 (not $x23434)))
 (let (($x6069 (and (not $x9319) (not (and $x21077 (not (and $x4513 (not (and $x2545 (not $x16632))))))))))
 (let (($x7015 (and (not (and $x9678 $x27584)) (not (and $x503 (not (and $x9874 (and (not $x6069) $x10991))))))))
 (let (($x21212 (and $x22925 (not (and $x39310 (not (and $x4132 (not (and $x6594 (not $x7015))))))))))
 (let (($x4622 (and $x11498 (not (and $x3097 (not (and (not (and $x7150 (not $x21212))) $x4545)))))))
 (let (($x9314 (not (and $x6207 (not (and (not (and bool.b18 (not $x4622))) (not $x9134)))))))
 (let (($x4861 (and (not (and $x581 (not (and $x9314 (not (and bool.b19 $x13379)))))) (not (and bool.b20 $x17385)))))
 (let (($x6784 (not bool.b22)))
 (let (($x6724 (and $x6784 (not (and (not (and $x24325 (not $x4861))) (not (and bool.b23 $x28895)))))))
 (let (($x31856 (not bool.b21)))
 (let (($x811 (and bool.b21 (and (not (and bool.b22 $x127)) (not (and $x6784 $x7118))))))
 (let (($x33926 (and (not $x811) (not (and $x31856 (and (not $x6724) (not (and bool.b22 $x7118))))))))
 (let (($x39019 (exists ((?lambdaprime Real) )(! (let ((?x3745 (* 60.0 ?lambdaprime)))
 (let ((?x1256 (+ x4 ?x3745)))
 (let ((?x26295 (- 1.0)))
 (let ((?x12768 (* ?x26295 ?x1256)))
 (let (($x9678 (<= ?x12768 (- 4910.0))))
 (let (($x503 (not $x9678)))
 (let ((?x37966 (+ x3 (* (/ ?x26295 20.0) ?lambdaprime))))
 (let ((?x14556 (* 1.0 ?x37966)))
 (let (($x8795 (<= ?x14556 40.0)))
 (let (($x9626 (not $x8795)))
 (let (($x8959 (not (and $x9626 (and (not (<= ?x14556 33.0)) (not (<= ?x12768 (- 4500.0))))))))
 (let (($x19808 (not (and $x9626 (and (not (<= ?x12768 (- 4100.0))) (not (<= ?x14556 33.0)))))))
 (let (($x5872 (and (and (not (and bool.b17 $x19808)) (not (and bool.b18 $x8959))) (not (and bool.b19 (not (and $x9626 $x503)))))))
 (and (and (<= 0.0 ?lambdaprime) (<= ?lambdaprime ?lambda)) (not $x5872))))))))))))))) :qid k!25))
 ))
 (or (or $x39019 (< ?lambda 0.0)) $x33926)))))))))))))))))))))))))))))))))))))))))))))))))))))))))))))))))))))))))))))))))))))))))))))))))))))))
 )
(check-sat)
